M+/Instances/S1-5-M+/S1-5-5-2-s-M+.txt
     100       5    0.05
       1       3       1       2       3      15       5       9       0      13       1
       1       2       2       3       3      12      11       6      15      14       1
       1       2       3       1       2      12       0       0       8       3       1
       2       2       2       2       2      13       0      15       3      11       1
       2       1       1       3       1      13       5       2       4      12       1
       1       2       3       3       2       3       0      15       6      10       1
       2       1       3       2       2      14      11      16      15       5       1
       1       1       1       3       1       3       1       2       0       9       1
       3       2       3       2       3       8       6      14       8      14       1
       3       3       2       3       2       8       3       7       8       5       1
       2       3       1       3       3      10      10       0       7       3       1
       3       2       3       3       1       6       8       6       2       7       1
       2       2       1       1       3      10       2       2       4      13       1
       1       2       1       1       3       8       4       8       7      13       1
       1       1       1       1       3      13       8      10      14      13       1
       3       2       1       2       1       1      12       4       6      14       1
       2       1       2       2       2       9       0       4       3      13       1
       2       3       2       1       2       8      10       9       3      12       1
       3       1       3       1       1       5      14       2      14      13       1
       3       3       1       1       1       6      14      12      16       1       1
       1       1       1       2       1       3      16       4       9      15       1
       3       2       1       3       1       5       3       6      12       7       1
       1       3       3       1       1       1      14       0       2      12       1
       1       3       3       1       2       1       4       9      14       5       1
       1       2       2       1       1       4       7      15       5       9       1
       2       3       3       2       3      10      12      13       1       0       1
       2       2       2       2       1       7       8       1       8      15       1
       2       2       2       2       3       8       3       6       7      16       1
       1       1       2       1       1      11       3       5       9      12       1
       2       3       2       3       2       0       0       8       1       4       1
       2       1       2       1       2       0       7       5       5      11       1
       1       1       3       1       2      14      13       4      15      10       1
       1       2       1       3       2      15       6       0       9      15       1
       1       1       1       1       1       4       1      11       2      15       1
       1       3       1       2       2      15       3      12      11       2       1
       1       2       2       1       1       2      11       4       9      12       1
       1       1       3       2       1      16       5       4       6       2       1
       3       1       3       1       3       0       8       7       6       5       1
       3       1       2       3       1       9      12       0       8       0       1
       3       2       3       2       3      11      13       7      14      16       1
       2       2       2       1       3       1      14      13       5       7       1
       2       2       1       1       3       4       1       9       3       8       1
       1       2       2       2       2       4       9       6       8       0       1
       3       1       2       3       1      13      13       4       3       3       1
       1       3       1       3       1       5      16       4      11      15       1
       2       1       1       2       1       1       7      13       6       2       1
       1       2       3       3       3       4       0       8      15       3       1
       3       3       2       1       1      10      16       0      14       7       1
       1       2       3       2       3      12       9      14       8       6       1
       1       3       1       3       1      14       4      10       4       7       1
       2       1       1       2       3       8       9       8      16      15       1
       2       1       2       2       3      11       1      10       3      11       1
       3       3       3       1       3       4      10       1      16      10       1
       3       2       1       1       1       5       5      11      13       3       1
       2       1       1       3       1      13      13      13       0      12       1
       2       3       2       2       2       0       9      16       0       4       1
       1       1       3       1       2      12      10       9      15      14       1
       3       1       2       3       3      11       9       9      14       5       1
       2       1       2       3       1       4       1      14       1      13       1
       3       2       3       1       1       2       2       0       1      13       1
       3       2       3       2       2       1       4      11      14      11       1
       1       2       1       2       3      14       4      10       2       7       1
       3       1       3       1       2       5       8      16       4       7       1
       2       2       1       3       1      16       4      10      11      14       1
       2       3       2       1       1       6      14      13       3       4       1
       3       2       3       1       3      12       4       8       1       0       1
       2       1       1       2       2       3       0       1       1       6       1
       3       2       1       1       2      14      10       1      12       5       1
       1       3       3       2       2       7       7       0       9       2       1
       3       2       1       2       2      10       9       3       7      11       1
       2       3       3       1       3       0      12       5      13      11       1
       2       3       2       1       1      15      13      10       4      14       1
       3       2       1       3       3       5      11       1       6       6       1
       3       2       3       3       3       1      15      15       0       4       1
       2       1       3       1       3      10       9      14       2      13       1
       2       1       2       3       3      16       2       8       9       2       1
       3       3       1       3       3      12       1      16      13       9       1
       3       3       1       2       1       9       7       8      12       0       1
       2       3       2       2       3       1       1       9       9       0       1
       3       2       2       2       3      15       6       7       0       6       1
       3       3       3       3       2       1      16       5       7      14       1
       2       1       2       3       3       8      14       9      13      10       1
       1       2       1       1       3      13       1      12      12       3       1
       3       1       2       3       2       9       8      15      10      16       1
       1       1       1       2       2       3       4       0       8       3       1
       1       3       2       1       2      11       9       2       7       3       1
       1       2       2       3       1      10       6       6      16       5       1
       1       3       3       1       2      11       0      15      10      12       1
       1       2       1       2       1       4       8       4      13       1       1
       1       2       2       1       3       2       3       5       7      11       1
       1       3       2       1       1       7      16      11       8      13       1
       2       3       3       3       1       5       8       2      11       0       1
       2       2       1       1       3      11       2      13       3       4       1
       1       1       2       3       3      16       5       0      10      11       1
       3       2       3       3       1      16      12       5       1       9       1
       1       2       1       3       1       1      11       5      15      13       1
       2       2       2       3       1       9      14       5       5       4       1
       3       2       3       3       1      10       6       8      10       1       1
       1       1       2       1       2       6      14      15      15       2       1
       2       3       2       3       1       7       0      15       8       5       1
      32      23      25      30      33
      62      54      63      65      65
     145      98     103     101     167